Traveling Salesman Problem/TSP_generados/Aleatorio1621103240_5.tsp
NAME: Aleatorio1621103240_5.tsp
COMMENT: Randomly generated scenario
TYPE: TSP
DIMENSION: 5
EDGE_WEIGHT_TYPE: ATT
NODE_COORD_SECTION
1 36.48 4.03
2 14.72 41.37
3 15.27 40.08
4 5.86 20.21
5 13.41 12.74
