Traveling Salesman Problem/TSP_generados/Aleatorio1621103240_5.opt.tour
NAME: Aleatorio1621103240_5.opt.tour
COMMENT: Optimal solution for Aleatorio1621103240_5 (101.44937068692633)
TYPE: TOUR
DIMENSION: 5
TOUR_SECTION
1 3 2 4 5
-1
EOF
